certificates/rado_a5_c164_N33.cnf
c Rad2 upper bound instance: x1 + 5*x2 - x3 = 164, interval [1,33]
p cnf 33 262
1 2 33 0
-1 -2 -33 0
2 3 33 0
-2 -3 -33 0
3 4 33 0
-3 -4 -33 0
4 5 33 0
-4 -5 -33 0
1 5 32 0
-1 -5 -32 0
5 6 33 0
-5 -6 -33 0
2 6 32 0
-2 -6 -32 0
6 7 33 0
-6 -7 -33 0
3 7 32 0
-3 -7 -32 0
7 8 33 0
-7 -8 -33 0
4 8 32 0
-4 -8 -32 0
8 9 33 0
-8 -9 -33 0
5 9 32 0
-5 -9 -32 0
9 10 33 0
-9 -10 -33 0
1 10 31 0
-1 -10 -31 0
6 10 32 0
-6 -10 -32 0
10 11 33 0
-10 -11 -33 0
2 11 31 0
-2 -11 -31 0
7 11 32 0
-7 -11 -32 0
11 12 33 0
-11 -12 -33 0
3 12 31 0
-3 -12 -31 0
8 12 32 0
-8 -12 -32 0
12 13 33 0
-12 -13 -33 0
4 13 31 0
-4 -13 -31 0
9 13 32 0
-9 -13 -32 0
13 14 33 0
-13 -14 -33 0
5 14 31 0
-5 -14 -31 0
10 14 32 0
-10 -14 -32 0
14 15 33 0
-14 -15 -33 0
1 15 30 0
-1 -15 -30 0
6 15 31 0
-6 -15 -31 0
11 15 32 0
-11 -15 -32 0
15 16 33 0
-15 -16 -33 0
2 16 30 0
-2 -16 -30 0
7 16 31 0
-7 -16 -31 0
12 16 32 0
-12 -16 -32 0
16 17 33 0
-16 -17 -33 0
3 17 30 0
-3 -17 -30 0
8 17 31 0
-8 -17 -31 0
13 17 32 0
-13 -17 -32 0
17 18 33 0
-17 -18 -33 0
4 18 30 0
-4 -18 -30 0
9 18 31 0
-9 -18 -31 0
14 18 32 0
-14 -18 -32 0
18 19 33 0
-18 -19 -33 0
5 19 30 0
-5 -19 -30 0
10 19 31 0
-10 -19 -31 0
15 19 32 0
-15 -19 -32 0
19 20 33 0
-19 -20 -33 0
1 20 29 0
-1 -20 -29 0
6 20 30 0
-6 -20 -30 0
11 20 31 0
-11 -20 -31 0
16 20 32 0
-16 -20 -32 0
20 21 33 0
-20 -21 -33 0
2 21 29 0
-2 -21 -29 0
7 21 30 0
-7 -21 -30 0
12 21 31 0
-12 -21 -31 0
17 21 32 0
-17 -21 -32 0
21 22 33 0
-21 -22 -33 0
3 22 29 0
-3 -22 -29 0
8 22 30 0
-8 -22 -30 0
13 22 31 0
-13 -22 -31 0
18 22 32 0
-18 -22 -32 0
22 23 33 0
-22 -23 -33 0
4 23 29 0
-4 -23 -29 0
9 23 30 0
-9 -23 -30 0
14 23 31 0
-14 -23 -31 0
19 23 32 0
-19 -23 -32 0
23 24 33 0
-23 -24 -33 0
5 24 29 0
-5 -24 -29 0
10 24 30 0
-10 -24 -30 0
15 24 31 0
-15 -24 -31 0
20 24 32 0
-20 -24 -32 0
24 25 33 0
-24 -25 -33 0
1 25 28 0
-1 -25 -28 0
6 25 29 0
-6 -25 -29 0
11 25 30 0
-11 -25 -30 0
16 25 31 0
-16 -25 -31 0
21 25 32 0
-21 -25 -32 0
25 26 33 0
-25 -26 -33 0
2 26 28 0
-2 -26 -28 0
7 26 29 0
-7 -26 -29 0
12 26 30 0
-12 -26 -30 0
17 26 31 0
-17 -26 -31 0
22 26 32 0
-22 -26 -32 0
26 27 33 0
-26 -27 -33 0
3 27 28 0
-3 -27 -28 0
8 27 29 0
-8 -27 -29 0
13 27 30 0
-13 -27 -30 0
18 27 31 0
-18 -27 -31 0
23 27 32 0
-23 -27 -32 0
27 28 33 0
-27 -28 -33 0
4 28 0
-4 -28 0
9 28 29 0
-9 -28 -29 0
14 28 30 0
-14 -28 -30 0
19 28 31 0
-19 -28 -31 0
24 28 32 0
-24 -28 -32 0
28 29 33 0
-28 -29 -33 0
5 28 29 0
-5 -28 -29 0
10 29 0
-10 -29 0
15 29 30 0
-15 -29 -30 0
20 29 31 0
-20 -29 -31 0
25 29 32 0
-25 -29 -32 0
29 30 33 0
-29 -30 -33 0
1 27 30 0
-1 -27 -30 0
6 28 30 0
-6 -28 -30 0
11 29 30 0
-11 -29 -30 0
16 30 0
-16 -30 0
21 30 31 0
-21 -30 -31 0
26 30 32 0
-26 -30 -32 0
30 31 33 0
-30 -31 -33 0
2 27 31 0
-2 -27 -31 0
7 28 31 0
-7 -28 -31 0
12 29 31 0
-12 -29 -31 0
17 30 31 0
-17 -30 -31 0
22 31 0
-22 -31 0
27 31 32 0
-27 -31 -32 0
31 32 33 0
-31 -32 -33 0
3 27 32 0
-3 -27 -32 0
8 28 32 0
-8 -28 -32 0
13 29 32 0
-13 -29 -32 0
18 30 32 0
-18 -30 -32 0
23 31 32 0
-23 -31 -32 0
28 32 0
-28 -32 0
32 33 0
-32 -33 0
4 27 33 0
-4 -27 -33 0
9 28 33 0
-9 -28 -33 0
14 29 33 0
-14 -29 -33 0
19 30 33 0
-19 -30 -33 0
24 31 33 0
-24 -31 -33 0
29 32 33 0
-29 -32 -33 0
