certificates/rado_a5_c164_N33.drat
-33 0
32 0
-28 0
27 0
4 0
29 0
9 0
-8 0
-23 0
-31 0
-3 0
-10 0
-25 0
-13 0
-5 0
7 0
17 0
22 0
14 0
24 0
30 0
19 0
2 0
12 0
1 0
11 0
16 0
26 0
6 0
0
